
        $ From http://www.csplib.org/Problems/prob009/data/helmut.pdf
        $ Problem number 63
        $ Sequence length : 25
        language ESSENCE' 1.0
        letting sizemaster be 273
        letting sizes be sequence(1,4,8,10,11,12,17,19,21,22,27,29,30,33,37,43,52,62,65,86,88,89,91,96,120)
        